1 -1 2 0
1 -1 3 0
1 1 -4 0
1 1 5 0
1 -1 -6 0
1 2 -7 0
1 -2 3 0
1 2 -4 0
1 -2 -5 0
1 -2 -8 0
1 9 -10 0
1 -9 11 0
1 -9 -3 0
1 -9 12 0
1 -9 13 0
1 11 14 0
1 -11 12 0
1 -4 15 0
1 4 16 0
1 4 -2 0
1 4 17 0
1 -4 9 0
1 -4 1 0
1 -4 8 0
1 -8 18 0
1 8 -16 0
1 8 2 0
1 -8 4 0
1 -8 -19 0
1 8 -20 0
1 8 21 0
1 8 9 0
1 -8 -1 0
1 -3 -15 0
1 3 22 0
1 -3 -11 0
1 3 2 0
1 -3 -23 0
1 3 -19 0
1 -3 24 0
1 -3 -25 0
1 3 -9 0
1 -3 1 0
1 -3 -5 0
1 -5 -15 0
1 -5 26 0
1 -5 -11 0
1 5 2 0
1 -5 -3 0
1 -5 -19 0
1 5 24 0
1 5 -25 0
1 5 1 0
1 -21 27 0
1 -21 12 0
1 -21 25 0
1 21 8 0
1 16 27 0
1 16 26 0
1 -16 -12 0
1 16 28 0
1 -16 -8 0
1 -20 10 0
1 20 27 0
1 -20 -29 0
1 20 4 0
1 20 12 0
1 -20 -28 0
1 20 30 0
1 20 24 0
1 -20 31 0
1 20 8 0
1 -18 -10 0
1 18 -27 0
1 -18 32 0
1 -18 -4 0
1 -18 -12 0
1 -18 28 0
1 -18 -20 0
1 -18 30 0
1 -18 -8 0
1 -28 33 0
1 -28 -18 0
1 -28 -16 0
1 28 -11 0
1 -28 -34 0
1 28 -35 0
1 -28 36 0
1 27 -37 0
1 27 -33 0
1 -27 -38 0
1 27 -16 0
1 -27 -11 0
1 -27 -34 0
1 27 39 0
1 -27 -40 0
1 -27 -20 0
1 27 21 0
1 27 9 0
1 27 -36 0
1 -12 41 0
1 -12 15 0
1 -12 18 0
1 -12 42 0
1 -12 43 0
1 -12 19 0
1 -12 -20 0
1 12 -21 0
1 -12 36 0
1 10 -44 0
1 10 18 0
1 -10 -16 0
1 10 11 0
1 -10 -34 0
1 -10 -12 0
1 10 42 0
1 10 20 0
1 -10 21 0
1 -10 -9 0
1 -10 36 0
1 -40 33 0
1 40 32 0
1 40 -29 0
1 40 28 0
1 40 -30 0
1 -40 31 0
1 33 27 0
1 -33 -15 0
1 -33 -32 0
1 -33 29 0
1 33 40 0
1 -33 -28 0
1 33 -30 0
1 33 31 0
1 -39 -27 0
1 39 42 0
1 39 28 0
1 39 -30 0
1 -37 -41 0
1 37 -29 0
1 37 28 0
1 37 -30 0
1 -37 31 0
1 -31 37 0
1 31 -33 0
1 -31 18 0
1 -31 -29 0
1 31 45 0
1 31 -39 0
1 31 46 0
1 -31 -47 0
1 -29 -37 0
1 -29 -33 0
1 -29 18 0
1 29 -48 0
1 -29 -31 0
1 -29 47 0
1 30 37 0
1 30 18 0
1 30 -32 0
1 30 -49 0
1 -30 39 0
1 -30 40 0
1 -30 20 0
1 30 50 0
1 -30 -47 0
1 -30 -51 0
1 -30 36 0
1 -32 37 0
1 -32 -33 0
1 -32 -18 0
1 32 52 0
1 -32 -45 0
1 32 49 0
1 32 39 0
1 -32 -40 0
1 32 -30 0
1 32 -47 0
1 -32 51 0
1 -32 -36 0
1 6 53 0
1 6 -54 0
1 6 -7 0
1 6 -55 0
1 -6 -1 0
1 -7 -2 0
1 7 -56 0
1 -7 55 0
1 7 -6 0
1 13 -53 0
1 -13 -57 0
1 13 58 0
1 13 -14 0
1 13 -56 0
1 -13 -55 0
1 -13 -59 0
1 -13 -9 0
1 14 -53 0
1 14 -54 0
1 -14 -58 0
1 14 55 0
1 -14 59 0
1 -14 60 0
1 -14 13 0
1 -54 -22 0
1 -54 -61 0
1 -54 -26 0
1 -54 14 0
1 -54 55 0
1 54 -25 0
1 54 13 0
1 -54 -6 0
1 55 54 0
1 55 -22 0
1 55 26 0
1 -55 -7 0
1 -55 -62 0
1 55 24 0
1 -55 -25 0
1 55 -13 0
1 53 63 0
1 -53 14 0
1 -53 7 0
1 53 -56 0
1 53 6 0
1 -56 53 0
1 -56 64 0
1 -56 13 0
1 25 -57 0
1 25 -26 0
1 25 58 0
1 -25 3 0
1 -25 -55 0
1 -25 59 0
1 -25 60 0
1 25 -21 0
1 25 -5 0
1 -26 -54 0
1 -26 -57 0
1 -26 16 0
1 26 58 0
1 -26 55 0
1 26 -60 0
1 26 -25 0
1 -24 -54 0
1 24 -22 0
1 24 58 0
1 24 -65 0
1 -24 -66 0
1 -24 3 0
1 24 -55 0
1 24 59 0
1 24 20 0
1 24 5 0
1 22 60 0
1 -22 54 0
1 22 18 0
1 -22 57 0
1 -22 -58 0
1 -22 65 0
1 22 3 0
1 22 -55 0
1 -22 -67 0
1 -22 -68 0
1 -58 69 0
1 -58 60 0
1 58 -41 0
1 58 15 0
1 58 -22 0
1 58 -14 0
1 -58 -70 0
1 58 42 0
1 58 -13 0
1 -60 69 0
1 60 15 0
1 -60 22 0
1 60 26 0
1 -60 -58 0
1 60 -14 0
1 60 70 0
1 60 42 0
1 60 19 0
1 -60 24 0
1 -57 22 0
1 57 -59 0
1 -57 13 0
1 -59 69 0
1 59 -22 0
1 59 -26 0
1 59 -14 0
1 59 70 0
1 59 -24 0
1 59 71 0
1 59 -25 0
1 -59 -13 0
1 19 -66 0
1 -19 3 0
1 19 4 0
1 19 -12 0
1 19 40 0
1 -19 -60 0
1 19 67 0
1 19 8 0
1 -15 33 0
1 15 58 0
1 15 -65 0
1 15 -4 0
1 -15 -12 0
1 15 -19 0
1 -15 67 0
1 -15 -68 0
1 15 5 0
1 15 -8 0
1 -42 72 0
1 42 -10 0
1 -42 -41 0
1 42 58 0
1 42 -65 0
1 42 66 0
1 -42 -12 0
1 -42 39 0
1 42 -60 0
1 -42 67 0
1 42 -68 0
1 -41 -37 0
1 -41 58 0
1 41 65 0
1 -41 -66 0
1 41 -23 0
1 -41 17 0
1 41 12 0
1 -41 42 0
1 41 -60 0
1 41 -67 0
1 41 -68 0
1 41 -73 0
1 66 -41 0
1 -66 15 0
1 -66 22 0
1 -66 -74 0
1 -66 49 0
1 66 34 0
1 -66 42 0
1 66 19 0
1 66 -24 0
1 -66 68 0
1 -66 -75 0
1 66 51 0
1 66 -36 0
1 68 41 0
1 -68 15 0
1 -68 22 0
1 68 -74 0
1 68 49 0
1 68 -76 0
1 -68 24 0
1 68 -75 0
1 68 -51 0
1 -68 36 0
1 -65 -69 0
1 65 41 0
1 65 -22 0
1 65 77 0
1 -65 -74 0
1 65 -70 0
1 -65 -42 0
1 -65 67 0
1 -65 75 0
1 -65 -78 0
1 -67 69 0
1 67 15 0
1 67 22 0
1 -67 65 0
1 67 -74 0
1 -67 79 0
1 -67 70 0
1 -67 42 0
1 67 -19 0
1 -67 24 0
1 67 -75 0
1 34 72 0
1 34 10 0
1 -34 27 0
1 -34 32 0
1 -34 66 0
1 -34 23 0
1 -34 70 0
1 34 17 0
1 -34 -28 0
1 34 -30 0
1 34 -36 0
1 -36 69 0
1 36 -72 0
1 -36 27 0
1 -36 -66 0
1 -36 -23 0
1 36 17 0
1 -36 -28 0
1 36 30 0
1 36 -68 0
1 -49 32 0
1 49 -66 0
1 -49 79 0
1 49 17 0
1 -49 -35 0
1 49 30 0
1 -49 68 0
1 -49 -51 0
1 -49 73 0
1 51 -72 0
1 51 -44 0
1 51 -38 0
1 51 -32 0
1 51 49 0
1 -51 23 0
1 51 -17 0
1 -51 -43 0
1 51 35 0
1 -51 -68 0
1 -51 -78 0
1 -17 72 0
1 -17 -41 0
1 -17 80 0
1 -17 -45 0
1 -17 49 0
1 -17 -34 0
1 -17 -4 0
1 17 -42 0
1 17 81 0
1 -17 82 0
1 -17 47 0
1 -17 -51 0
1 17 36 0
1 72 -83 0
1 -72 49 0
1 72 17 0
1 72 42 0
1 -72 -8 0
1 -72 -81 0
1 72 82 0
1 72 51 0
1 23 41 0
1 -23 -83 0
1 -23 -84 0
1 -23 -49 0
1 -23 3 0
1 23 34 0
1 23 81 0
1 -23 85 0
1 -23 75 0
1 -23 73 0
1 23 36 0
1 -73 -41 0
1 -73 83 0
1 -73 84 0
1 73 -74 0
1 73 -49 0
1 -73 23 0
1 73 34 0
1 73 -42 0
1 -73 -75 0
1 -73 51 0
1 73 -36 0
1 -45 72 0
1 45 -44 0
1 -45 -32 0
1 -45 38 0
1 45 -29 0
1 -45 -74 0
1 45 -17 0
1 45 -43 0
1 45 -35 0
1 45 -30 0
1 47 38 0
1 -47 -32 0
1 47 -45 0
1 47 17 0
1 -47 43 0
1 -47 35 0
1 -47 -30 0
1 -47 -31 0
1 47 75 0
1 -80 72 0
1 -80 -38 0
1 -80 -52 0
1 -80 -82 0
1 80 84 0
1 -80 43 0
1 80 -35 0
1 -80 -50 0
1 80 46 0
1 82 72 0
1 82 44 0
1 82 -38 0
1 82 -52 0
1 -82 48 0
1 82 17 0
1 -82 -43 0
1 82 -35 0
1 82 50 0
1 82 85 0
1 35 -38 0
1 -35 86 0
1 -35 87 0
1 -35 -28 0
1 -35 88 0
1 -35 -89 0
1 -35 -82 0
1 -35 51 0
1 38 -86 0
1 38 -87 0
1 -38 80 0
1 38 45 0
1 -38 -49 0
1 -38 -88 0
1 -38 47 0
1 38 -51 0
1 43 44 0
1 -43 90 0
1 -43 -80 0
1 -43 49 0
1 43 12 0
1 43 81 0
1 -43 -82 0
1 -43 -47 0
1 44 10 0
1 -44 -90 0
1 -44 -83 0
1 44 -45 0
1 44 49 0
1 -44 43 0
1 -44 81 0
1 44 -47 0
1 -44 -51 0
1 87 38 0
1 -87 52 0
1 87 -48 0
1 -87 83 0
1 87 -50 0
1 -87 -35 0
1 -87 -89 0
1 -87 46 0
1 89 38 0
1 -89 52 0
1 -89 -87 0
1 -89 35 0
1 -89 81 0
1 86 38 0
1 -86 -52 0
1 86 90 0
1 -86 -48 0
1 86 88 0
1 86 50 0
1 86 46 0
1 -88 38 0
1 88 -52 0
1 -88 -48 0
1 88 35 0
1 -88 -50 0
1 88 -46 0
1 -46 86 0
1 46 -87 0
1 46 48 0
1 -46 80 0
1 46 -88 0
1 -46 -89 0
1 46 82 0
1 48 86 0
1 48 29 0
1 48 87 0
1 -48 80 0
1 48 -88 0
1 48 89 0
1 -48 -46 0
1 50 86 0
1 50 52 0
1 50 -87 0
1 50 -80 0
1 50 88 0
1 50 -30 0
1 50 82 0
1 52 -32 0
1 -52 86 0
1 52 80 0
1 52 50 0
1 -52 89 0
1 52 82 0
1 70 69 0
1 70 63 0
1 -70 61 0
1 -70 58 0
1 70 -64 0
1 -70 62 0
1 -70 59 0
1 69 63 0
1 69 -61 0
1 69 57 0
1 69 -58 0
1 69 65 0
1 -69 -70 0
1 -69 -36 0
1 79 -61 0
1 -79 -91 0
1 -79 92 0
1 79 65 0
1 -79 -49 0
1 79 -62 0
1 79 71 0
1 -79 78 0
1 -78 65 0
1 78 79 0
1 -78 -64 0
1 78 93 0
1 78 -67 0
1 78 51 0
1 61 -69 0
1 -61 54 0
1 61 84 0
1 -61 74 0
1 61 -79 0
1 61 70 0
1 -61 75 0
1 -62 -69 0
1 -62 84 0
1 62 -74 0
1 62 -79 0
1 -62 70 0
1 62 55 0
1 -62 -85 0
1 62 75 0
1 62 78 0
1 -63 69 0
1 63 -53 0
1 -63 64 0
1 64 69 0
1 64 -63 0
1 -64 79 0
1 -64 -70 0
1 -64 56 0
1 -64 78 0
1 74 -61 0
1 -74 91 0
1 -74 45 0
1 -74 -66 0
1 -74 -62 0
1 -74 -71 0
1 74 93 0
1 74 -67 0
1 74 -68 0
1 74 -75 0
1 74 73 0
1 75 92 0
1 75 -65 0
1 -75 68 0
1 -75 74 0
1 -75 23 0
1 75 -62 0
1 -75 -71 0
1 75 67 0
1 75 47 0
1 -84 -61 0
1 -84 -94 0
1 -84 -91 0
1 84 -80 0
1 84 77 0
1 -84 -95 0
1 -84 -23 0
1 84 62 0
1 -84 93 0
1 -84 85 0
1 84 76 0
1 -84 -73 0
1 85 -91 0
1 -85 -92 0
1 -85 -84 0
1 -85 95 0
1 85 62 0
1 -85 71 0
1 85 -93 0
1 -85 -82 0
1 -85 -94 0
1 -85 76 0
1 85 73 0
1 92 93 0
1 92 -90 0
1 92 -58 0
1 -92 -83 0
1 -92 84 0
1 -92 -74 0
1 92 -79 0
1 92 96 0
1 -92 81 0
1 92 85 0
1 92 75 0
1 -92 -78 0
1 -93 -84 0
1 -93 -74 0
1 -93 79 0
1 -93 -60 0
1 -93 81 0
1 -93 -85 0
1 93 -75 0
1 -93 -78 0
1 -91 -84 0
1 91 74 0
1 -91 -71 0
1 -91 85 0
1 91 75 0
1 91 78 0
1 71 -91 0
1 71 84 0
1 71 74 0
1 -71 -79 0
1 71 -85 0
1 -71 -78 0
1 -83 -72 0
1 83 -93 0
1 -83 -87 0
1 -83 -77 0
1 83 -95 0
1 -83 17 0
1 83 81 0
1 -83 -76 0
1 -83 73 0
1 81 72 0
1 -81 44 0
1 81 -83 0
1 -81 77 0
1 81 -95 0
1 81 23 0
1 81 17 0
1 81 89 0
1 -81 93 0
1 81 -94 0
1 81 76 0
1 -90 -86 0
1 -90 77 0
1 90 95 0
1 90 96 0
1 -90 76 0
1 -96 -44 0
1 -96 -90 0
1 -96 43 0
1 -96 88 0
1 -96 -93 0
1 96 94 0
1 -96 -76 0
1 95 -90 0
1 -95 -66 0
1 95 -81 0
1 -95 85 0
1 95 -76 0
1 -76 -90 0
1 -76 -83 0
1 76 95 0
1 -76 -96 0
1 -76 -68 0
1 -77 90 0
1 77 83 0
1 -77 -65 0
1 -77 84 0
1 -77 96 0
1 77 -85 0
1 -94 -90 0
1 -94 84 0
1 94 -77 0
1 94 -96 0
1 -94 81 0
1 94 -67 0
